p cnf 113 13
-22 36 3 66 -5 0
-61 4 8 -26 -83 0
100 43 28 -84 -81 0
-102 -22 111 -113 -3 0
42 3 -1 -111 62 0
-41 -8 73 -69 4 0
-27 -41 47 -5 -71 0
-12 40 3 -25 -88 0
2 107 98 66 -38 0
-58 -111 20 -5 -19 0
-12 -22 30 39 1 0
-61 75 -8 29 -4 0
80 6 -1 11 7 0
